c *********************************
c * Circuit generated by BenCGen
c *
c * RippleCarryAdderSubtractor_65_65_65_OutSunT
c *
c * Ports with 1 gate(s): 2
c * Ports with 2 gate(s): 392
c * Total gates: 394
c *********************************
p cnf 524 1376
1 198 0
-1 -198 0
1 -197 0
198 -197 0
-1 -198 197 0
197 199 0
-197 -199 0
66 197 -200 0
-66 197 200 0
66 -197 200 0
-66 -197 -200 0
67 197 -201 0
-67 197 201 0
67 -197 201 0
-67 -197 -201 0
68 197 -202 0
-68 197 202 0
68 -197 202 0
-68 -197 -202 0
69 197 -203 0
-69 197 203 0
69 -197 203 0
-69 -197 -203 0
70 197 -204 0
-70 197 204 0
70 -197 204 0
-70 -197 -204 0
71 197 -205 0
-71 197 205 0
71 -197 205 0
-71 -197 -205 0
72 197 -206 0
-72 197 206 0
72 -197 206 0
-72 -197 -206 0
73 197 -207 0
-73 197 207 0
73 -197 207 0
-73 -197 -207 0
74 197 -208 0
-74 197 208 0
74 -197 208 0
-74 -197 -208 0
75 197 -209 0
-75 197 209 0
75 -197 209 0
-75 -197 -209 0
76 197 -210 0
-76 197 210 0
76 -197 210 0
-76 -197 -210 0
77 197 -211 0
-77 197 211 0
77 -197 211 0
-77 -197 -211 0
78 197 -212 0
-78 197 212 0
78 -197 212 0
-78 -197 -212 0
79 197 -213 0
-79 197 213 0
79 -197 213 0
-79 -197 -213 0
80 197 -214 0
-80 197 214 0
80 -197 214 0
-80 -197 -214 0
81 197 -215 0
-81 197 215 0
81 -197 215 0
-81 -197 -215 0
82 197 -216 0
-82 197 216 0
82 -197 216 0
-82 -197 -216 0
83 197 -217 0
-83 197 217 0
83 -197 217 0
-83 -197 -217 0
84 197 -218 0
-84 197 218 0
84 -197 218 0
-84 -197 -218 0
85 197 -219 0
-85 197 219 0
85 -197 219 0
-85 -197 -219 0
86 197 -220 0
-86 197 220 0
86 -197 220 0
-86 -197 -220 0
87 197 -221 0
-87 197 221 0
87 -197 221 0
-87 -197 -221 0
88 197 -222 0
-88 197 222 0
88 -197 222 0
-88 -197 -222 0
89 197 -223 0
-89 197 223 0
89 -197 223 0
-89 -197 -223 0
90 197 -224 0
-90 197 224 0
90 -197 224 0
-90 -197 -224 0
91 197 -225 0
-91 197 225 0
91 -197 225 0
-91 -197 -225 0
92 197 -226 0
-92 197 226 0
92 -197 226 0
-92 -197 -226 0
93 197 -227 0
-93 197 227 0
93 -197 227 0
-93 -197 -227 0
94 197 -228 0
-94 197 228 0
94 -197 228 0
-94 -197 -228 0
95 197 -229 0
-95 197 229 0
95 -197 229 0
-95 -197 -229 0
96 197 -230 0
-96 197 230 0
96 -197 230 0
-96 -197 -230 0
97 197 -231 0
-97 197 231 0
97 -197 231 0
-97 -197 -231 0
98 197 -232 0
-98 197 232 0
98 -197 232 0
-98 -197 -232 0
99 197 -233 0
-99 197 233 0
99 -197 233 0
-99 -197 -233 0
100 197 -234 0
-100 197 234 0
100 -197 234 0
-100 -197 -234 0
101 197 -235 0
-101 197 235 0
101 -197 235 0
-101 -197 -235 0
102 197 -236 0
-102 197 236 0
102 -197 236 0
-102 -197 -236 0
103 197 -237 0
-103 197 237 0
103 -197 237 0
-103 -197 -237 0
104 197 -238 0
-104 197 238 0
104 -197 238 0
-104 -197 -238 0
105 197 -239 0
-105 197 239 0
105 -197 239 0
-105 -197 -239 0
106 197 -240 0
-106 197 240 0
106 -197 240 0
-106 -197 -240 0
107 197 -241 0
-107 197 241 0
107 -197 241 0
-107 -197 -241 0
108 197 -242 0
-108 197 242 0
108 -197 242 0
-108 -197 -242 0
109 197 -243 0
-109 197 243 0
109 -197 243 0
-109 -197 -243 0
110 197 -244 0
-110 197 244 0
110 -197 244 0
-110 -197 -244 0
111 197 -245 0
-111 197 245 0
111 -197 245 0
-111 -197 -245 0
112 197 -246 0
-112 197 246 0
112 -197 246 0
-112 -197 -246 0
113 197 -247 0
-113 197 247 0
113 -197 247 0
-113 -197 -247 0
114 197 -248 0
-114 197 248 0
114 -197 248 0
-114 -197 -248 0
115 197 -249 0
-115 197 249 0
115 -197 249 0
-115 -197 -249 0
116 197 -250 0
-116 197 250 0
116 -197 250 0
-116 -197 -250 0
117 197 -251 0
-117 197 251 0
117 -197 251 0
-117 -197 -251 0
118 197 -252 0
-118 197 252 0
118 -197 252 0
-118 -197 -252 0
119 197 -253 0
-119 197 253 0
119 -197 253 0
-119 -197 -253 0
120 197 -254 0
-120 197 254 0
120 -197 254 0
-120 -197 -254 0
121 197 -255 0
-121 197 255 0
121 -197 255 0
-121 -197 -255 0
122 197 -256 0
-122 197 256 0
122 -197 256 0
-122 -197 -256 0
123 197 -257 0
-123 197 257 0
123 -197 257 0
-123 -197 -257 0
124 197 -258 0
-124 197 258 0
124 -197 258 0
-124 -197 -258 0
125 197 -259 0
-125 197 259 0
125 -197 259 0
-125 -197 -259 0
126 197 -260 0
-126 197 260 0
126 -197 260 0
-126 -197 -260 0
127 197 -261 0
-127 197 261 0
127 -197 261 0
-127 -197 -261 0
128 197 -262 0
-128 197 262 0
128 -197 262 0
-128 -197 -262 0
129 197 -263 0
-129 197 263 0
129 -197 263 0
-129 -197 -263 0
130 197 -264 0
-130 197 264 0
130 -197 264 0
-130 -197 -264 0
1 200 -266 0
-1 200 266 0
1 -200 266 0
-1 -200 -266 0
266 197 -131 0
-266 197 131 0
266 -197 131 0
-266 -197 -131 0
197 -267 0
266 -267 0
-197 -266 267 0
200 -268 0
1 -268 0
-200 -1 268 0
-267 265 0
-268 265 0
267 268 -265 0
2 201 -270 0
-2 201 270 0
2 -201 270 0
-2 -201 -270 0
270 265 -132 0
-270 265 132 0
270 -265 132 0
-270 -265 -132 0
265 -271 0
270 -271 0
-265 -270 271 0
201 -272 0
2 -272 0
-201 -2 272 0
-271 269 0
-272 269 0
271 272 -269 0
3 202 -274 0
-3 202 274 0
3 -202 274 0
-3 -202 -274 0
274 269 -133 0
-274 269 133 0
274 -269 133 0
-274 -269 -133 0
269 -275 0
274 -275 0
-269 -274 275 0
202 -276 0
3 -276 0
-202 -3 276 0
-275 273 0
-276 273 0
275 276 -273 0
4 203 -278 0
-4 203 278 0
4 -203 278 0
-4 -203 -278 0
278 273 -134 0
-278 273 134 0
278 -273 134 0
-278 -273 -134 0
273 -279 0
278 -279 0
-273 -278 279 0
203 -280 0
4 -280 0
-203 -4 280 0
-279 277 0
-280 277 0
279 280 -277 0
5 204 -282 0
-5 204 282 0
5 -204 282 0
-5 -204 -282 0
282 277 -135 0
-282 277 135 0
282 -277 135 0
-282 -277 -135 0
277 -283 0
282 -283 0
-277 -282 283 0
204 -284 0
5 -284 0
-204 -5 284 0
-283 281 0
-284 281 0
283 284 -281 0
6 205 -286 0
-6 205 286 0
6 -205 286 0
-6 -205 -286 0
286 281 -136 0
-286 281 136 0
286 -281 136 0
-286 -281 -136 0
281 -287 0
286 -287 0
-281 -286 287 0
205 -288 0
6 -288 0
-205 -6 288 0
-287 285 0
-288 285 0
287 288 -285 0
7 206 -290 0
-7 206 290 0
7 -206 290 0
-7 -206 -290 0
290 285 -137 0
-290 285 137 0
290 -285 137 0
-290 -285 -137 0
285 -291 0
290 -291 0
-285 -290 291 0
206 -292 0
7 -292 0
-206 -7 292 0
-291 289 0
-292 289 0
291 292 -289 0
8 207 -294 0
-8 207 294 0
8 -207 294 0
-8 -207 -294 0
294 289 -138 0
-294 289 138 0
294 -289 138 0
-294 -289 -138 0
289 -295 0
294 -295 0
-289 -294 295 0
207 -296 0
8 -296 0
-207 -8 296 0
-295 293 0
-296 293 0
295 296 -293 0
9 208 -298 0
-9 208 298 0
9 -208 298 0
-9 -208 -298 0
298 293 -139 0
-298 293 139 0
298 -293 139 0
-298 -293 -139 0
293 -299 0
298 -299 0
-293 -298 299 0
208 -300 0
9 -300 0
-208 -9 300 0
-299 297 0
-300 297 0
299 300 -297 0
10 209 -302 0
-10 209 302 0
10 -209 302 0
-10 -209 -302 0
302 297 -140 0
-302 297 140 0
302 -297 140 0
-302 -297 -140 0
297 -303 0
302 -303 0
-297 -302 303 0
209 -304 0
10 -304 0
-209 -10 304 0
-303 301 0
-304 301 0
303 304 -301 0
11 210 -306 0
-11 210 306 0
11 -210 306 0
-11 -210 -306 0
306 301 -141 0
-306 301 141 0
306 -301 141 0
-306 -301 -141 0
301 -307 0
306 -307 0
-301 -306 307 0
210 -308 0
11 -308 0
-210 -11 308 0
-307 305 0
-308 305 0
307 308 -305 0
12 211 -310 0
-12 211 310 0
12 -211 310 0
-12 -211 -310 0
310 305 -142 0
-310 305 142 0
310 -305 142 0
-310 -305 -142 0
305 -311 0
310 -311 0
-305 -310 311 0
211 -312 0
12 -312 0
-211 -12 312 0
-311 309 0
-312 309 0
311 312 -309 0
13 212 -314 0
-13 212 314 0
13 -212 314 0
-13 -212 -314 0
314 309 -143 0
-314 309 143 0
314 -309 143 0
-314 -309 -143 0
309 -315 0
314 -315 0
-309 -314 315 0
212 -316 0
13 -316 0
-212 -13 316 0
-315 313 0
-316 313 0
315 316 -313 0
14 213 -318 0
-14 213 318 0
14 -213 318 0
-14 -213 -318 0
318 313 -144 0
-318 313 144 0
318 -313 144 0
-318 -313 -144 0
313 -319 0
318 -319 0
-313 -318 319 0
213 -320 0
14 -320 0
-213 -14 320 0
-319 317 0
-320 317 0
319 320 -317 0
15 214 -322 0
-15 214 322 0
15 -214 322 0
-15 -214 -322 0
322 317 -145 0
-322 317 145 0
322 -317 145 0
-322 -317 -145 0
317 -323 0
322 -323 0
-317 -322 323 0
214 -324 0
15 -324 0
-214 -15 324 0
-323 321 0
-324 321 0
323 324 -321 0
16 215 -326 0
-16 215 326 0
16 -215 326 0
-16 -215 -326 0
326 321 -146 0
-326 321 146 0
326 -321 146 0
-326 -321 -146 0
321 -327 0
326 -327 0
-321 -326 327 0
215 -328 0
16 -328 0
-215 -16 328 0
-327 325 0
-328 325 0
327 328 -325 0
17 216 -330 0
-17 216 330 0
17 -216 330 0
-17 -216 -330 0
330 325 -147 0
-330 325 147 0
330 -325 147 0
-330 -325 -147 0
325 -331 0
330 -331 0
-325 -330 331 0
216 -332 0
17 -332 0
-216 -17 332 0
-331 329 0
-332 329 0
331 332 -329 0
18 217 -334 0
-18 217 334 0
18 -217 334 0
-18 -217 -334 0
334 329 -148 0
-334 329 148 0
334 -329 148 0
-334 -329 -148 0
329 -335 0
334 -335 0
-329 -334 335 0
217 -336 0
18 -336 0
-217 -18 336 0
-335 333 0
-336 333 0
335 336 -333 0
19 218 -338 0
-19 218 338 0
19 -218 338 0
-19 -218 -338 0
338 333 -149 0
-338 333 149 0
338 -333 149 0
-338 -333 -149 0
333 -339 0
338 -339 0
-333 -338 339 0
218 -340 0
19 -340 0
-218 -19 340 0
-339 337 0
-340 337 0
339 340 -337 0
20 219 -342 0
-20 219 342 0
20 -219 342 0
-20 -219 -342 0
342 337 -150 0
-342 337 150 0
342 -337 150 0
-342 -337 -150 0
337 -343 0
342 -343 0
-337 -342 343 0
219 -344 0
20 -344 0
-219 -20 344 0
-343 341 0
-344 341 0
343 344 -341 0
21 220 -346 0
-21 220 346 0
21 -220 346 0
-21 -220 -346 0
346 341 -151 0
-346 341 151 0
346 -341 151 0
-346 -341 -151 0
341 -347 0
346 -347 0
-341 -346 347 0
220 -348 0
21 -348 0
-220 -21 348 0
-347 345 0
-348 345 0
347 348 -345 0
22 221 -350 0
-22 221 350 0
22 -221 350 0
-22 -221 -350 0
350 345 -152 0
-350 345 152 0
350 -345 152 0
-350 -345 -152 0
345 -351 0
350 -351 0
-345 -350 351 0
221 -352 0
22 -352 0
-221 -22 352 0
-351 349 0
-352 349 0
351 352 -349 0
23 222 -354 0
-23 222 354 0
23 -222 354 0
-23 -222 -354 0
354 349 -153 0
-354 349 153 0
354 -349 153 0
-354 -349 -153 0
349 -355 0
354 -355 0
-349 -354 355 0
222 -356 0
23 -356 0
-222 -23 356 0
-355 353 0
-356 353 0
355 356 -353 0
24 223 -358 0
-24 223 358 0
24 -223 358 0
-24 -223 -358 0
358 353 -154 0
-358 353 154 0
358 -353 154 0
-358 -353 -154 0
353 -359 0
358 -359 0
-353 -358 359 0
223 -360 0
24 -360 0
-223 -24 360 0
-359 357 0
-360 357 0
359 360 -357 0
25 224 -362 0
-25 224 362 0
25 -224 362 0
-25 -224 -362 0
362 357 -155 0
-362 357 155 0
362 -357 155 0
-362 -357 -155 0
357 -363 0
362 -363 0
-357 -362 363 0
224 -364 0
25 -364 0
-224 -25 364 0
-363 361 0
-364 361 0
363 364 -361 0
26 225 -366 0
-26 225 366 0
26 -225 366 0
-26 -225 -366 0
366 361 -156 0
-366 361 156 0
366 -361 156 0
-366 -361 -156 0
361 -367 0
366 -367 0
-361 -366 367 0
225 -368 0
26 -368 0
-225 -26 368 0
-367 365 0
-368 365 0
367 368 -365 0
27 226 -370 0
-27 226 370 0
27 -226 370 0
-27 -226 -370 0
370 365 -157 0
-370 365 157 0
370 -365 157 0
-370 -365 -157 0
365 -371 0
370 -371 0
-365 -370 371 0
226 -372 0
27 -372 0
-226 -27 372 0
-371 369 0
-372 369 0
371 372 -369 0
28 227 -374 0
-28 227 374 0
28 -227 374 0
-28 -227 -374 0
374 369 -158 0
-374 369 158 0
374 -369 158 0
-374 -369 -158 0
369 -375 0
374 -375 0
-369 -374 375 0
227 -376 0
28 -376 0
-227 -28 376 0
-375 373 0
-376 373 0
375 376 -373 0
29 228 -378 0
-29 228 378 0
29 -228 378 0
-29 -228 -378 0
378 373 -159 0
-378 373 159 0
378 -373 159 0
-378 -373 -159 0
373 -379 0
378 -379 0
-373 -378 379 0
228 -380 0
29 -380 0
-228 -29 380 0
-379 377 0
-380 377 0
379 380 -377 0
30 229 -382 0
-30 229 382 0
30 -229 382 0
-30 -229 -382 0
382 377 -160 0
-382 377 160 0
382 -377 160 0
-382 -377 -160 0
377 -383 0
382 -383 0
-377 -382 383 0
229 -384 0
30 -384 0
-229 -30 384 0
-383 381 0
-384 381 0
383 384 -381 0
31 230 -386 0
-31 230 386 0
31 -230 386 0
-31 -230 -386 0
386 381 -161 0
-386 381 161 0
386 -381 161 0
-386 -381 -161 0
381 -387 0
386 -387 0
-381 -386 387 0
230 -388 0
31 -388 0
-230 -31 388 0
-387 385 0
-388 385 0
387 388 -385 0
32 231 -390 0
-32 231 390 0
32 -231 390 0
-32 -231 -390 0
390 385 -162 0
-390 385 162 0
390 -385 162 0
-390 -385 -162 0
385 -391 0
390 -391 0
-385 -390 391 0
231 -392 0
32 -392 0
-231 -32 392 0
-391 389 0
-392 389 0
391 392 -389 0
33 232 -394 0
-33 232 394 0
33 -232 394 0
-33 -232 -394 0
394 389 -163 0
-394 389 163 0
394 -389 163 0
-394 -389 -163 0
389 -395 0
394 -395 0
-389 -394 395 0
232 -396 0
33 -396 0
-232 -33 396 0
-395 393 0
-396 393 0
395 396 -393 0
34 233 -398 0
-34 233 398 0
34 -233 398 0
-34 -233 -398 0
398 393 -164 0
-398 393 164 0
398 -393 164 0
-398 -393 -164 0
393 -399 0
398 -399 0
-393 -398 399 0
233 -400 0
34 -400 0
-233 -34 400 0
-399 397 0
-400 397 0
399 400 -397 0
35 234 -402 0
-35 234 402 0
35 -234 402 0
-35 -234 -402 0
402 397 -165 0
-402 397 165 0
402 -397 165 0
-402 -397 -165 0
397 -403 0
402 -403 0
-397 -402 403 0
234 -404 0
35 -404 0
-234 -35 404 0
-403 401 0
-404 401 0
403 404 -401 0
36 235 -406 0
-36 235 406 0
36 -235 406 0
-36 -235 -406 0
406 401 -166 0
-406 401 166 0
406 -401 166 0
-406 -401 -166 0
401 -407 0
406 -407 0
-401 -406 407 0
235 -408 0
36 -408 0
-235 -36 408 0
-407 405 0
-408 405 0
407 408 -405 0
37 236 -410 0
-37 236 410 0
37 -236 410 0
-37 -236 -410 0
410 405 -167 0
-410 405 167 0
410 -405 167 0
-410 -405 -167 0
405 -411 0
410 -411 0
-405 -410 411 0
236 -412 0
37 -412 0
-236 -37 412 0
-411 409 0
-412 409 0
411 412 -409 0
38 237 -414 0
-38 237 414 0
38 -237 414 0
-38 -237 -414 0
414 409 -168 0
-414 409 168 0
414 -409 168 0
-414 -409 -168 0
409 -415 0
414 -415 0
-409 -414 415 0
237 -416 0
38 -416 0
-237 -38 416 0
-415 413 0
-416 413 0
415 416 -413 0
39 238 -418 0
-39 238 418 0
39 -238 418 0
-39 -238 -418 0
418 413 -169 0
-418 413 169 0
418 -413 169 0
-418 -413 -169 0
413 -419 0
418 -419 0
-413 -418 419 0
238 -420 0
39 -420 0
-238 -39 420 0
-419 417 0
-420 417 0
419 420 -417 0
40 239 -422 0
-40 239 422 0
40 -239 422 0
-40 -239 -422 0
422 417 -170 0
-422 417 170 0
422 -417 170 0
-422 -417 -170 0
417 -423 0
422 -423 0
-417 -422 423 0
239 -424 0
40 -424 0
-239 -40 424 0
-423 421 0
-424 421 0
423 424 -421 0
41 240 -426 0
-41 240 426 0
41 -240 426 0
-41 -240 -426 0
426 421 -171 0
-426 421 171 0
426 -421 171 0
-426 -421 -171 0
421 -427 0
426 -427 0
-421 -426 427 0
240 -428 0
41 -428 0
-240 -41 428 0
-427 425 0
-428 425 0
427 428 -425 0
42 241 -430 0
-42 241 430 0
42 -241 430 0
-42 -241 -430 0
430 425 -172 0
-430 425 172 0
430 -425 172 0
-430 -425 -172 0
425 -431 0
430 -431 0
-425 -430 431 0
241 -432 0
42 -432 0
-241 -42 432 0
-431 429 0
-432 429 0
431 432 -429 0
43 242 -434 0
-43 242 434 0
43 -242 434 0
-43 -242 -434 0
434 429 -173 0
-434 429 173 0
434 -429 173 0
-434 -429 -173 0
429 -435 0
434 -435 0
-429 -434 435 0
242 -436 0
43 -436 0
-242 -43 436 0
-435 433 0
-436 433 0
435 436 -433 0
44 243 -438 0
-44 243 438 0
44 -243 438 0
-44 -243 -438 0
438 433 -174 0
-438 433 174 0
438 -433 174 0
-438 -433 -174 0
433 -439 0
438 -439 0
-433 -438 439 0
243 -440 0
44 -440 0
-243 -44 440 0
-439 437 0
-440 437 0
439 440 -437 0
45 244 -442 0
-45 244 442 0
45 -244 442 0
-45 -244 -442 0
442 437 -175 0
-442 437 175 0
442 -437 175 0
-442 -437 -175 0
437 -443 0
442 -443 0
-437 -442 443 0
244 -444 0
45 -444 0
-244 -45 444 0
-443 441 0
-444 441 0
443 444 -441 0
46 245 -446 0
-46 245 446 0
46 -245 446 0
-46 -245 -446 0
446 441 -176 0
-446 441 176 0
446 -441 176 0
-446 -441 -176 0
441 -447 0
446 -447 0
-441 -446 447 0
245 -448 0
46 -448 0
-245 -46 448 0
-447 445 0
-448 445 0
447 448 -445 0
47 246 -450 0
-47 246 450 0
47 -246 450 0
-47 -246 -450 0
450 445 -177 0
-450 445 177 0
450 -445 177 0
-450 -445 -177 0
445 -451 0
450 -451 0
-445 -450 451 0
246 -452 0
47 -452 0
-246 -47 452 0
-451 449 0
-452 449 0
451 452 -449 0
48 247 -454 0
-48 247 454 0
48 -247 454 0
-48 -247 -454 0
454 449 -178 0
-454 449 178 0
454 -449 178 0
-454 -449 -178 0
449 -455 0
454 -455 0
-449 -454 455 0
247 -456 0
48 -456 0
-247 -48 456 0
-455 453 0
-456 453 0
455 456 -453 0
49 248 -458 0
-49 248 458 0
49 -248 458 0
-49 -248 -458 0
458 453 -179 0
-458 453 179 0
458 -453 179 0
-458 -453 -179 0
453 -459 0
458 -459 0
-453 -458 459 0
248 -460 0
49 -460 0
-248 -49 460 0
-459 457 0
-460 457 0
459 460 -457 0
50 249 -462 0
-50 249 462 0
50 -249 462 0
-50 -249 -462 0
462 457 -180 0
-462 457 180 0
462 -457 180 0
-462 -457 -180 0
457 -463 0
462 -463 0
-457 -462 463 0
249 -464 0
50 -464 0
-249 -50 464 0
-463 461 0
-464 461 0
463 464 -461 0
51 250 -466 0
-51 250 466 0
51 -250 466 0
-51 -250 -466 0
466 461 -181 0
-466 461 181 0
466 -461 181 0
-466 -461 -181 0
461 -467 0
466 -467 0
-461 -466 467 0
250 -468 0
51 -468 0
-250 -51 468 0
-467 465 0
-468 465 0
467 468 -465 0
52 251 -470 0
-52 251 470 0
52 -251 470 0
-52 -251 -470 0
470 465 -182 0
-470 465 182 0
470 -465 182 0
-470 -465 -182 0
465 -471 0
470 -471 0
-465 -470 471 0
251 -472 0
52 -472 0
-251 -52 472 0
-471 469 0
-472 469 0
471 472 -469 0
53 252 -474 0
-53 252 474 0
53 -252 474 0
-53 -252 -474 0
474 469 -183 0
-474 469 183 0
474 -469 183 0
-474 -469 -183 0
469 -475 0
474 -475 0
-469 -474 475 0
252 -476 0
53 -476 0
-252 -53 476 0
-475 473 0
-476 473 0
475 476 -473 0
54 253 -478 0
-54 253 478 0
54 -253 478 0
-54 -253 -478 0
478 473 -184 0
-478 473 184 0
478 -473 184 0
-478 -473 -184 0
473 -479 0
478 -479 0
-473 -478 479 0
253 -480 0
54 -480 0
-253 -54 480 0
-479 477 0
-480 477 0
479 480 -477 0
55 254 -482 0
-55 254 482 0
55 -254 482 0
-55 -254 -482 0
482 477 -185 0
-482 477 185 0
482 -477 185 0
-482 -477 -185 0
477 -483 0
482 -483 0
-477 -482 483 0
254 -484 0
55 -484 0
-254 -55 484 0
-483 481 0
-484 481 0
483 484 -481 0
56 255 -486 0
-56 255 486 0
56 -255 486 0
-56 -255 -486 0
486 481 -186 0
-486 481 186 0
486 -481 186 0
-486 -481 -186 0
481 -487 0
486 -487 0
-481 -486 487 0
255 -488 0
56 -488 0
-255 -56 488 0
-487 485 0
-488 485 0
487 488 -485 0
57 256 -490 0
-57 256 490 0
57 -256 490 0
-57 -256 -490 0
490 485 -187 0
-490 485 187 0
490 -485 187 0
-490 -485 -187 0
485 -491 0
490 -491 0
-485 -490 491 0
256 -492 0
57 -492 0
-256 -57 492 0
-491 489 0
-492 489 0
491 492 -489 0
58 257 -494 0
-58 257 494 0
58 -257 494 0
-58 -257 -494 0
494 489 -188 0
-494 489 188 0
494 -489 188 0
-494 -489 -188 0
489 -495 0
494 -495 0
-489 -494 495 0
257 -496 0
58 -496 0
-257 -58 496 0
-495 493 0
-496 493 0
495 496 -493 0
59 258 -498 0
-59 258 498 0
59 -258 498 0
-59 -258 -498 0
498 493 -189 0
-498 493 189 0
498 -493 189 0
-498 -493 -189 0
493 -499 0
498 -499 0
-493 -498 499 0
258 -500 0
59 -500 0
-258 -59 500 0
-499 497 0
-500 497 0
499 500 -497 0
60 259 -502 0
-60 259 502 0
60 -259 502 0
-60 -259 -502 0
502 497 -190 0
-502 497 190 0
502 -497 190 0
-502 -497 -190 0
497 -503 0
502 -503 0
-497 -502 503 0
259 -504 0
60 -504 0
-259 -60 504 0
-503 501 0
-504 501 0
503 504 -501 0
61 260 -506 0
-61 260 506 0
61 -260 506 0
-61 -260 -506 0
506 501 -191 0
-506 501 191 0
506 -501 191 0
-506 -501 -191 0
501 -507 0
506 -507 0
-501 -506 507 0
260 -508 0
61 -508 0
-260 -61 508 0
-507 505 0
-508 505 0
507 508 -505 0
62 261 -510 0
-62 261 510 0
62 -261 510 0
-62 -261 -510 0
510 505 -192 0
-510 505 192 0
510 -505 192 0
-510 -505 -192 0
505 -511 0
510 -511 0
-505 -510 511 0
261 -512 0
62 -512 0
-261 -62 512 0
-511 509 0
-512 509 0
511 512 -509 0
63 262 -514 0
-63 262 514 0
63 -262 514 0
-63 -262 -514 0
514 509 -193 0
-514 509 193 0
514 -509 193 0
-514 -509 -193 0
509 -515 0
514 -515 0
-509 -514 515 0
262 -516 0
63 -516 0
-262 -63 516 0
-515 513 0
-516 513 0
515 516 -513 0
64 263 -518 0
-64 263 518 0
64 -263 518 0
-64 -263 -518 0
518 513 -194 0
-518 513 194 0
518 -513 194 0
-518 -513 -194 0
513 -519 0
518 -519 0
-513 -518 519 0
263 -520 0
64 -520 0
-263 -64 520 0
-519 517 0
-520 517 0
519 520 -517 0
65 264 -522 0
-65 264 522 0
65 -264 522 0
-65 -264 -522 0
522 517 -195 0
-522 517 195 0
522 -517 195 0
-522 -517 -195 0
517 -523 0
522 -523 0
-517 -522 523 0
264 -524 0
65 -524 0
-264 -65 524 0
-523 521 0
-524 521 0
523 524 -521 0
521 197 -196 0
-521 197 196 0
521 -197 196 0
-521 -197 -196 0
